p tdp 16 42
1 3
1 12
1 14
1 15
1 16
2 3
2 10
2 13
3 8
3 9
3 10
3 15
4 6
4 7
4 10
4 12
4 13
5 7
5 8
5 11
5 13
5 14
5 16
6 9
6 10
6 12
6 13
6 15
7 12
7 13
8 11
8 13
9 16
10 12
10 14
10 16
11 14
11 15
11 16
12 15
13 15
14 15
